c Random generated cnf formula, satisfiable: true
p cnf 10 50
-5 -8 6 0
7 -10 -9 0
-3 -2 -4 0
-6 1 -7 0
2 -8 7 0
3 4 -5 0
7 4 -6 0
10 -2 6 0
-9 6 8 0
1 -9 -6 0
1 10 5 0
-2 -10 -3 0
-1 4 2 0
9 -7 -5 0
-8 2 10 0
5 9 8 0
4 -8 -9 0
1 4 -5 0
-1 -3 7 0
-9 3 1 0
4 -7 -3 0
2 -3 5 0
6 -1 -9 0
-9 2 -8 0
-4 5 -10 0
9 7 -8 0
7 8 9 0
-3 2 1 0
-1 4 9 0
-7 1 -6 0
2 5 -10 0
8 1 -3 0
3 -7 -10 0
9 10 5 0
-3 -8 4 0
-3 -7 -1 0
-7 -9 4 0
-7 4 8 0
6 8 -1 0
5 -6 -4 0
-9 -6 -3 0
6 7 -2 0
2 9 5 0
8 -5 -7 0
-3 5 -7 0
-3 10 -5 0
-5 6 1 0
2 1 3 0
-7 -9 -3 0
-7 -1 -3 0
